% Auto-generated by scripts/generate_dzn.py
% problem_type   = regex
% instance       = regex_58
% source_json    = instances_json/1_medium_blowup/regex_58.json
% blowup         = 2.619047619047619
% representation = NFA

mode = 1;

var_count = 19;
n_constraints = 2;
Q = 12;
S = 2;
q0 = [1, 1];
F = [{9}, {12}];
weights = [10, 3, 4, 4, 4, 6, 9, 9, 1, 10, 8, 9, 10, 5, 5, 4, 10, 2, 7];
d_dfa = array3d(1..2, 1..12, 1..2, [
  % k = 1
    0, 0,
    0, 0,
    0, 0,
    0, 0,
    0, 0,
    0, 0,
    0, 0,
    0, 0,
    0, 0,
    0, 0,
    0, 0,
    0, 0,

  % k = 2
    0, 0,
    0, 0,
    0, 0,
    0, 0,
    0, 0,
    0, 0,
    0, 0,
    0, 0,
    0, 0,
    0, 0,
    0, 0,
    0, 0
]);
d_nfa = array3d(1..2, 1..12, 1..2, [
  % k = 1
    {1}, {1, 2},
    {3}, {},
    {}, {4},
    {5}, {5},
    {6}, {6},
    {7}, {7},
    {8}, {8},
    {9}, {9},
    {}, {},
    {}, {},
    {}, {},
    {}, {},

  % k = 2
    {2}, {1},
    {3}, {2},
    {4}, {3},
    {5}, {4},
    {6}, {5},
    {7}, {6},
    {8}, {7},
    {9}, {8},
    {10}, {9},
    {11}, {10},
    {12}, {11},
    {}, {12}
]);
